p cnf 10 18
00001 00002 0
-00001 -00002 0
00001 00003 0
-00001 -00003 0
00001 00004 0
-00001 -00004 0
00001 00005 0
-00001 -00005 0
00001 00006 0
-00001 -00006 0
00001 00007 0
-00001 -00007 0
00001 00008 0
-00001 -00008 0
00001 00009 0
-00001 -00009 0
00001 00010 0
-00001 -00010 0
